43785
1 1 0 0 1 1 1 1 1 0 1 1 1 1 0 0 0 0 1 1 1 1 0 1 0 1 0 1 1 1 
18 19 21 27 5 12 5 27 18 28 4 28 13 1 28 18 1 20 18 27 18 21 5 0 10 18 27 19 29 5 19 19 4 21 27 6 20 8 27 21 18 8 6 4 8 19 13 21 19 20 0 27 0 21 8 6 11 8 18 25 29 0 7 8 13 11 23 19 19 25 7 12 6 8 23 23 20 23 8 27 10 0 8 25 29 13 6 5 27 7 28 6 25 25 23 13 11 6 0 28 28 21 25 18 4 0 4 27 18 13 19 4 27 12 12 8 28 7 10 8 20 11 28 19 4 21 5 11 4 0 28 21 25 20 23 8 1 13 28 10 12 18 11 11 25 5 27 21 18 25 27 28 23 0 8 11 5 21 13 13 13 27 10 0 5 28 5 4 1 21 1 20 19 10 4 5 0 10 29 10 5 21 23 19 12 8 28 23 0 21 5 21 6 4 7 12 7 21 10 19 
